Minimize
  - 20 y_0 - 25 y_1 - 50 y_2 - 60 y_3 - 14 y_4 - 27 y_5 - 42 y_6 - 48 y_7
   - 22 y_8 - 46 y_9 - 24 y_10 - 40 y_11 - 45 y_12 - 25 y_14 - 27 y_15
   - 38 y_16 - 47 y_17 - 45 y_18 - 18 y_19 - 47 y_20 - 37 y_21 - 49 y_22
   - 53 y_23 - 15 y_24 - 31 y_25 - 15 y_26 - 62 y_27 - 38 y_28 - 47 y_29
   - 59 y_30 - 64 y_31 - 51 y_32 - 52 y_33 - 12 y_34 - 5 y_35 - 36 y_36
   - 41 y_37 - 48 y_38 - 36 y_39 - 54 y_40 - 46 y_41 - 31 y_42 - 42 y_43
   - 27 y_44 - 42 y_45 - 34 y_46 - 35 y_47 - 22 y_48 - 40 y_49
   + 1834 Constant
Subject To
 c_0: y_0 = 1
 c_1_0: y_0 + y_14 >= 1
 c_1_1: y_1 + y_14 >= 1
 c_1_2: y_2 + y_7 + y_12 + y_33 + y_37 >= 1
 c_1_3: y_3 + y_27 + y_30 + y_31 >= 1
 c_1_4: y_4 + y_26 + y_35 >= 1
 c_1_5: y_5 + y_21 >= 1
 c_1_6: y_6 + y_20 + y_39 + y_41 >= 1
 c_1_7: y_2 + y_7 + y_12 + y_33 + y_37 >= 1
 c_1_8: y_8 + y_15 + y_48 >= 1
 c_1_9: y_9 + y_16 + y_28 >= 1
 c_1_10: y_10 + y_19 + y_42 + y_44 >= 1
 c_1_11: y_11 + y_25 >= 1
 c_1_12: y_2 + y_7 + y_12 + y_21 + y_33 + y_37 + y_49 >= 1
 c_1_13: y_13 + y_35 >= 1
 c_1_14: y_0 + y_1 + y_14 >= 1
 c_1_15: y_8 + y_15 + y_39 + y_48 >= 1
 c_1_16: y_9 + y_16 + y_28 + y_36 + y_46 >= 1
 c_1_17: y_17 + y_38 >= 1
 c_1_18: y_18 + y_22 + y_47 >= 1
 c_1_19: y_10 + y_19 + y_24 + y_34 + y_44 >= 1
 c_1_20: y_6 + y_20 + y_41 >= 1
 c_1_21: y_5 + y_12 + y_21 + y_37 + y_49 >= 1
 c_1_22: y_18 + y_22 >= 1
 c_1_23: y_23 >= 1
 c_1_24: y_19 + y_24 + y_34 >= 1
 c_1_25: y_11 + y_25 >= 1
 c_1_26: y_4 + y_26 >= 1
 c_1_27: y_3 + y_27 + y_30 + y_31 >= 1
 c_1_28: y_9 + y_16 + y_28 + y_36 + y_46 >= 1
 c_1_29: y_29 + y_43 >= 1
 c_1_30: y_3 + y_27 + y_30 >= 1
 c_1_31: y_3 + y_27 + y_31 >= 1
 c_1_32: y_32 + y_45 >= 1
 c_1_33: y_2 + y_7 + y_12 + y_33 >= 1
 c_1_34: y_19 + y_24 + y_34 >= 1
 c_1_35: y_4 + y_13 + y_35 >= 1
 c_1_36: y_16 + y_28 + y_36 + y_46 >= 1
 c_1_37: y_2 + y_7 + y_12 + y_21 + y_37 + y_49 >= 1
 c_1_38: y_17 + y_38 >= 1
 c_1_39: y_6 + y_15 + y_39 >= 1
 c_1_40: y_40 >= 1
 c_1_41: y_6 + y_20 + y_41 >= 1
 c_1_42: y_10 + y_42 + y_44 >= 1
 c_1_43: y_29 + y_43 >= 1
 c_1_44: y_10 + y_19 + y_42 + y_44 >= 1
 c_1_45: y_32 + y_45 >= 1
 c_1_46: y_16 + y_28 + y_36 + y_46 >= 1
 c_1_47: y_18 + y_47 >= 1
 c_1_48: y_8 + y_15 + y_48 >= 1
 c_1_49: y_12 + y_21 + y_37 + y_49 >= 1
Bounds
 Constant = 1
Binaries
 y_0 y_1 y_2 y_3 y_4 y_5 y_6 y_7 y_8 y_9 y_10 y_11 y_12 y_13 y_14 y_15 y_16
 y_17 y_18 y_19 y_20 y_21 y_22 y_23 y_24 y_25 y_26 y_27 y_28 y_29 y_30 y_31
 y_32 y_33 y_34 y_35 y_36 y_37 y_38 y_39 y_40 y_41 y_42 y_43 y_44 y_45 y_46
 y_47 y_48 y_49
End
